400
75 75
1 52 231
2 52 698
3 52 337
4 52 970
5 52 211
6 52 967
7 52 647
8 52 312
9 52 374
10 51 837
11 51 663
12 51 926
13 51 189
14 51 256
15 51 140
16 51 877
17 51 733
18 51 617
19 51 680
20 51 193
21 51 57
22 51 562
23 51 907
24 50 618
25 50 400
26 50 421
27 50 666
28 50 904
29 50 343
30 49 524
31 49 30
32 49 877
33 49 462
34 49 249
35 49 849
36 49 763
37 49 251
38 49 708
39 49 50
40 49 856
41 49 775
42 49 606
43 48 80
44 48 542
45 48 570
46 48 790
47 48 983
48 48 206
49 48 938
50 48 631
51 47 17
52 47 78
53 47 359
54 47 969
55 47 33
56 47 292
57 47 293
58 47 581
59 47 456
60 47 368
61 46 309
62 46 736
63 46 902
64 46 266
65 45 245
66 45 117
67 45 863
68 45 771
69 45 846
70 45 399
71 44 537
72 44 419
73 44 176
74 44 259
75 44 449
76 44 921
77 44 1000
78 44 784
79 44 238
80 44 680
81 44 479
82 44 4
83 44 731
84 44 73
85 44 93
86 43 553
87 43 948
88 43 5
89 43 576
90 43 144
91 43 229
92 43 380
93 43 902
94 43 268
95 42 888
96 42 600
97 42 635
98 42 213
99 42 42
100 42 994
101 42 594
102 42 75
103 42 950
104 42 61
105 42 308
106 41 426
107 41 179
108 41 558
109 41 101
110 41 381
111 41 836
112 41 677
113 41 684
114 41 17
115 41 851
116 41 190
117 41 538
118 40 839
119 40 245
120 40 671
121 40 613
122 40 932
123 40 323
124 40 21
125 40 370
126 40 255
127 40 852
128 40 711
129 40 359
130 40 695
131 40 891
132 40 401
133 39 178
134 39 0
135 39 567
136 39 812
137 39 231
138 39 467
139 39 84
140 39 162
141 39 940
142 39 255
143 39 544
144 39 172
145 39 848
146 39 447
147 39 184
148 39 980
149 38 266
150 38 397
151 38 879
152 38 133
153 38 137
154 38 2
155 38 235
156 38 551
157 38 927
158 38 32
159 38 638
160 37 483
161 37 70
162 37 710
163 37 644
164 37 429
165 37 646
166 37 572
167 36 414
168 36 508
169 36 621
170 36 783
171 36 906
172 36 505
173 36 202
174 36 172
175 36 940
176 36 598
177 36 712
178 36 18
179 36 98
180 36 945
181 36 997
182 36 162
183 36 197
184 36 307
185 36 283
186 36 505
187 35 310
188 35 542
189 35 408
190 35 647
191 35 340
192 35 825
193 35 456
194 35 575
195 35 259
196 35 319
197 35 599
198 35 443
199 35 755
200 35 264
201 35 137
202 35 480
203 35 681
204 34 299
205 34 234
206 34 466
207 34 571
208 34 900
209 34 464
210 34 2
211 34 559
212 34 818
213 34 321
214 33 151
215 33 368
216 33 114
217 33 618
218 33 376
219 33 232
220 33 654
221 33 124
222 33 822
223 32 574
224 32 771
225 32 24
226 32 701
227 32 197
228 32 397
229 32 565
230 32 108
231 31 263
232 31 644
233 31 40
234 31 265
235 31 297
236 31 403
237 31 699
238 31 661
239 31 510
240 31 671
241 31 31
242 31 109
243 31 221
244 31 54
245 30 73
246 30 370
247 30 756
248 30 661
249 30 782
250 30 337
251 30 359
252 30 421
253 29 923
254 29 19
255 29 545
256 29 637
257 29 542
258 29 349
259 29 855
260 29 177
261 29 335
262 29 503
263 29 514
264 29 638
265 28 48
266 28 839
267 28 315
268 28 994
269 28 278
270 28 633
271 28 628
272 28 595
273 28 453
274 28 101
275 28 632
276 28 89
277 28 487
278 28 512
279 27 821
280 27 692
281 27 435
282 27 24
283 27 390
284 27 945
285 27 569
286 27 306
287 27 414
288 27 135
289 27 138
290 27 350
291 27 1000
292 27 150
293 26 13
294 26 296
295 26 478
296 26 826
297 26 118
298 26 328
299 26 525
300 26 202
301 26 506
302 26 744
303 26 858
304 25 293
305 25 338
306 25 505
307 25 974
308 25 529
309 25 979
310 25 103
311 24 981
312 24 487
313 24 639
314 23 532
315 23 365
316 23 145
317 23 44
318 23 297
319 23 612
320 23 232
321 23 238
322 23 514
323 23 845
324 23 597
325 23 256
326 22 394
327 22 868
328 22 588
329 22 707
330 22 474
331 22 741
332 22 206
333 21 277
334 21 99
335 21 554
336 21 647
337 21 256
338 21 311
339 21 299
340 21 476
341 21 59
342 21 374
343 21 375
344 20 552
345 20 432
346 20 781
347 20 553
348 20 146
349 20 281
350 20 716
351 20 707
352 19 432
353 19 96
354 19 20
355 19 174
356 19 615
357 19 105
358 19 813
359 19 471
360 18 18
361 18 231
362 18 300
363 18 511
364 18 20
365 18 147
366 18 314
367 17 483
368 17 460
369 17 40
370 17 403
371 17 993
372 17 803
373 17 64
374 17 858
375 17 177
376 17 348
377 17 727
378 17 65
379 16 829
380 16 51
381 16 754
382 16 847
383 16 576
384 16 571
385 16 754
386 16 944
387 16 470
388 16 766
389 15 239
390 15 732
391 15 555
392 15 344
393 15 823
394 15 885
395 15 560
396 15 589
397 15 725
398 15 564
399 15 83
400 15 590
